(set-logic QF_S)
(set-option :parse-transducers true)
(set-option :produce-models true)
(define-fun-rec toLower ((x String) (y String)) Bool
   (or (and (= x "") (= y ""))
       (and (not (= x "")) (not (= y ""))
           (= (char.code (str.head y))
               (ite (and (<= 65 (char.code (str.head x)))
                       (<= (char.code (str.head x)) 90))
                   (+ (char.code (str.head x)) 32)
                   (char.code (str.head x))))
           (toLower (str.tail x) (str.tail y))))
)
(declare-fun sym601 () String)
(assert (<= (str.len sym601) 11))
(declare-fun sym403 () String)
(assert (<= (str.len sym403) 11))
(declare-fun sym205 () String)
(assert (<= (str.len sym205) 11))
(declare-fun sym645 () String)
(assert (<= (str.len sym645) 11))
(declare-fun sym449 () String)
(assert (<= (str.len sym449) 11))
(declare-fun sym329 () String)
(assert (<= (str.len sym329) 11))
(declare-fun sym529 () String)
(assert (<= (str.len sym529) 11))
(declare-fun sym681 () String)
(assert (<= (str.len sym681) 11))
(declare-fun sym485 () String)
(assert (<= (str.len sym485) 11))
(declare-fun sym563 () String)
(assert (<= (str.len sym563) 11))
(declare-fun sym245 () String)
(assert (<= (str.len sym245) 11))
(declare-fun sym368 () String)
(assert (<= (str.len sym368) 11))
(declare-fun sym721 () String)
(assert (<= (str.len sym721) 11))
(declare-fun sym160 () String)
(assert (<= (str.len sym160) 11))
(declare-fun sym284 () String)
(assert (<= (str.len sym284) 11))
(declare-fun sym459 () String)
(assert (<= (str.len sym459) 11))
(declare-fun sym735 () String)
(assert (<= (str.len sym735) 11))
(declare-fun sym539 () String)
(assert (<= (str.len sym539) 11))
(declare-fun sym419 () String)
(assert (<= (str.len sym419) 11))
(declare-fun sym175 () String)
(assert (<= (str.len sym175) 11))
(declare-fun sym495 () String)
(assert (<= (str.len sym495) 11))
(declare-fun sym255 () String)
(assert (<= (str.len sym255) 11))
(declare-fun sym135 () String)
(assert (<= (str.len sym135) 11))
(declare-fun sym577 () String)
(assert (<= (str.len sym577) 11))
(declare-fun sym655 () String)
(assert (<= (str.len sym655) 11))
(declare-fun sym215 () String)
(assert (<= (str.len sym215) 11))
(declare-fun sym611 () String)
(assert (<= (str.len sym611) 11))
(declare-fun sym294 () String)
(assert (<= (str.len sym294) 11))
(declare-fun sym691 () String)
(assert (<= (str.len sym691) 11))
(declare-fun sym20 () String)
(assert (<= (str.len sym20) 11))
(declare-fun sym745 () String)
(assert (<= (str.len sym745) 11))
(declare-fun sym701 () String)
(assert (<= (str.len sym701) 11))
(declare-fun sym549 () String)
(assert (<= (str.len sym549) 11))
(declare-fun sym505 () String)
(assert (<= (str.len sym505) 11))
(declare-fun sym429 () String)
(assert (<= (str.len sym429) 11))
(declare-fun sym309 () String)
(assert (<= (str.len sym309) 11))
(declare-fun sym343 () String)
(assert (<= (str.len sym343) 11))
(declare-fun sym587 () String)
(assert (<= (str.len sym587) 11))
(declare-fun sym269 () String)
(assert (<= (str.len sym269) 11))
(declare-fun sym225 () String)
(assert (<= (str.len sym225) 11))
(declare-fun sym621 () String)
(assert (<= (str.len sym621) 11))
(declare-fun sym665 () String)
(assert (<= (str.len sym665) 11))
(declare-fun sym185 () String)
(assert (<= (str.len sym185) 11))
(declare-fun sym383 () String)
(assert (<= (str.len sym383) 11))
(declare-fun sym711 () String)
(assert (<= (str.len sym711) 11))
(declare-fun sym755 () String)
(assert (<= (str.len sym755) 11))
(declare-fun sym635 () String)
(assert (<= (str.len sym635) 11))
(declare-fun sym515 () String)
(assert (<= (str.len sym515) 11))
(declare-fun sym439 () String)
(assert (<= (str.len sym439) 11))
(declare-fun sym319 () String)
(assert (<= (str.len sym319) 11))
(declare-fun sym475 () String)
(assert (<= (str.len sym475) 11))
(declare-fun sym113 () String)
(assert (<= (str.len sym113) 11))
(declare-fun sym235 () String)
(assert (<= (str.len sym235) 11))
(declare-fun sym358 () String)
(assert (<= (str.len sym358) 11))
(declare-fun sym150 () String)
(assert (<= (str.len sym150) 11))
(declare-fun sym393 () String)
(assert (<= (str.len sym393) 11))
(declare-fun sym195 () String)
(assert (<= (str.len sym195) 11))
(declare-fun L27  () String)
(declare-fun L39  () String)
(declare-fun L67  () String)
(declare-fun L106  () String)
(declare-fun L35  () String)
(declare-fun L47  () String)
(declare-fun L31  () String)
(declare-fun L43  () String)
(declare-fun L55  () String)
(declare-fun L3  () String)
(declare-fun L110  () String)
(declare-fun L51  () String)
(declare-fun L102  () String)
(declare-fun L18  () String)
(declare-fun L78  () String)
(declare-fun L14  () String)
(declare-fun L26  () String)
(declare-fun L30  () String)
(declare-fun L74  () String)
(declare-fun L8  () String)
(declare-fun L86  () String)
(declare-fun L10  () String)
(declare-fun L54  () String)
(declare-fun L98  () String)
(declare-fun L22  () String)
(declare-fun L66  () String)
(declare-fun L70  () String)
(declare-fun L4  () String)
(declare-fun L82  () String)
(declare-fun L94  () String)
(declare-fun L62  () String)
(declare-fun L0  () String)
(declare-fun L90  () String)
(declare-fun L49  () String)
(declare-fun L45  () String)
(declare-fun L89  () String)
(declare-fun L57  () String)
(declare-fun L9  () String)
(declare-fun L104  () String)
(declare-fun L37  () String)
(declare-fun L41  () String)
(declare-fun L53  () String)
(declare-fun L108  () String)
(declare-fun L33  () String)
(declare-fun L1  () String)
(declare-fun L100  () String)
(declare-fun L112  () String)
(declare-fun L16  () String)
(declare-fun L28  () String)
(declare-fun L12  () String)
(declare-fun L24  () String)
(declare-fun L68  () String)
(declare-fun L96  () String)
(declare-fun L20  () String)
(declare-fun L64  () String)
(declare-fun L32  () String)
(declare-fun L76  () String)
(declare-fun L6  () String)
(declare-fun L88  () String)
(declare-fun L92  () String)
(declare-fun L60  () String)
(declare-fun L72  () String)
(declare-fun L2  () String)
(declare-fun L84  () String)
(declare-fun L80  () String)
(define-fun Alphabet () RegLan 
	(re.* (re.union (str.to_re "A") (str.to_re "B") (str.to_re "C") (str.to_re "D") (str.to_re "E") (str.to_re "F") (str.to_re "G") (str.to_re "H") (str.to_re "I") (str.to_re "J") (str.to_re "K") (str.to_re "L") (str.to_re "M") (str.to_re "N") (str.to_re "O") (str.to_re "P") (str.to_re "Q") (str.to_re "R") (str.to_re "S") (str.to_re "T") (str.to_re "U") (str.to_re "V") (str.to_re "W") (str.to_re "X") (str.to_re "Y") (str.to_re "Z") (str.to_re "a") (str.to_re "b") (str.to_re "c") (str.to_re "d") (str.to_re "e") (str.to_re "f") (str.to_re "g") (str.to_re "h") (str.to_re "i") (str.to_re "j") (str.to_re "k") (str.to_re "l") (str.to_re "m") (str.to_re "n") (str.to_re "o") (str.to_re "p") (str.to_re "q") (str.to_re "r") (str.to_re "s") (str.to_re "t") (str.to_re "u") (str.to_re "v") (str.to_re "w") (str.to_re "x") (str.to_re "y") (str.to_re "z") ))
)
(assert (toLower sym459  L80 ))
(assert (toLower sym529  L84 ))
(assert (toLower sym485  L2 ))
(assert (toLower sym515  L72 ))
(assert (toLower sym655  L60 ))
(assert (toLower sym215  L92 ))
(assert (toLower sym113  L88 ))
(assert (toLower sym185  L6 ))
(assert (toLower sym319  L76 ))
(assert (toLower "type"  L32 ))
(assert (toLower sym635  L64 ))
(assert (toLower sym269  L20 ))
(assert (toLower sym563  L96 ))
(assert (toLower sym429  L68 ))
(assert (toLower sym539  L24 ))
(assert (toLower sym160  L12 ))
(assert (toLower sym577  L28 ))
(assert (toLower sym245  L16 ))
(assert (toLower sym701  L112 ))
(assert (toLower sym745  L100 ))
(assert (toLower "name"  L1 ))
(assert (toLower sym755  L33 ))
(assert (toLower sym175  L108 ))
(assert (toLower sym721  L53 ))
(assert (toLower sym393  L41 ))
(assert (toLower sym329  L37 ))
(assert (toLower sym495  L104 ))
(assert (toLower "length"  L9 ))
(assert (toLower sym645  L57 ))
(assert (toLower "database"  L89 ))
(assert (toLower sym681  L45 ))
(assert (toLower sym449  L49 ))
(assert (toLower sym284  L90 ))
(assert (toLower sym475  L0 ))
(assert (toLower sym505  L62 ))
(assert (toLower sym255  L94 ))
(assert (toLower sym368  L82 ))
(assert (toLower sym235  L4 ))
(assert (toLower sym309  L70 ))
(assert (toLower sym225  L66 ))
(assert (toLower sym135  L22 ))
(assert (toLower sym665  L98 ))
(assert (toLower "option"  L54 ))
(assert (toLower sym601  L10 ))
(assert (toLower sym195  L86 ))
(assert (toLower sym711  L8 ))
(assert (toLower sym621  L74 ))
(assert (toLower sym20  L30 ))
(assert (toLower sym549  L26 ))
(assert (toLower sym587  L14 ))
(assert (toLower sym358  L78 ))
(assert (toLower sym735  L18 ))
(assert (toLower sym691  L102 ))
(assert (toLower sym343  L51 ))
(assert (toLower sym611  L110 ))
(assert (toLower "description"  L3 ))
(assert (toLower sym383  L55 ))
(assert (toLower sym439  L43 ))
(assert (toLower sym403  L31 ))
(assert (toLower sym294  L47 ))
(assert (toLower sym150  L35 ))
(assert (toLower sym419  L106 ))
(assert (toLower "table"  L67 ))
(assert (toLower sym205  L39 ))
(assert (toLower "field"  L27 ))

(assert (str.in_re sym195 Alphabet))
(assert (str.in_re sym393 Alphabet))
(assert (str.in_re sym150 Alphabet))
(assert (str.in_re sym358 Alphabet))
(assert (str.in_re sym235 Alphabet))
(assert (str.in_re sym113 Alphabet))
(assert (str.in_re sym475 Alphabet))
(assert (str.in_re sym319 Alphabet))
(assert (str.in_re sym439 Alphabet))
(assert (str.in_re sym515 Alphabet))
(assert (str.in_re sym635 Alphabet))
(assert (str.in_re sym755 Alphabet))
(assert (str.in_re sym711 Alphabet))
(assert (str.in_re sym383 Alphabet))
(assert (str.in_re sym185 Alphabet))
(assert (str.in_re sym665 Alphabet))
(assert (str.in_re sym621 Alphabet))
(assert (str.in_re sym225 Alphabet))
(assert (str.in_re sym269 Alphabet))
(assert (str.in_re sym587 Alphabet))
(assert (str.in_re sym343 Alphabet))
(assert (str.in_re sym309 Alphabet))
(assert (str.in_re sym429 Alphabet))
(assert (str.in_re sym505 Alphabet))
(assert (str.in_re sym549 Alphabet))
(assert (str.in_re sym701 Alphabet))
(assert (str.in_re sym745 Alphabet))
(assert (str.in_re sym20 Alphabet))
(assert (str.in_re sym691 Alphabet))
(assert (str.in_re sym294 Alphabet))
(assert (str.in_re sym611 Alphabet))
(assert (str.in_re sym215 Alphabet))
(assert (str.in_re sym655 Alphabet))
(assert (str.in_re sym577 Alphabet))
(assert (str.in_re sym135 Alphabet))
(assert (str.in_re sym255 Alphabet))
(assert (str.in_re sym495 Alphabet))
(assert (str.in_re sym175 Alphabet))
(assert (str.in_re sym419 Alphabet))
(assert (str.in_re sym539 Alphabet))
(assert (str.in_re sym735 Alphabet))
(assert (str.in_re sym459 Alphabet))
(assert (str.in_re sym284 Alphabet))
(assert (str.in_re sym160 Alphabet))
(assert (str.in_re sym721 Alphabet))
(assert (str.in_re sym368 Alphabet))
(assert (str.in_re sym245 Alphabet))
(assert (str.in_re sym563 Alphabet))
(assert (str.in_re sym485 Alphabet))
(assert (str.in_re sym681 Alphabet))
(assert (str.in_re sym529 Alphabet))
(assert (str.in_re sym329 Alphabet))
(assert (str.in_re sym449 Alphabet))
(assert (str.in_re sym645 Alphabet))
(assert (str.in_re sym205 Alphabet))
(assert (str.in_re sym403 Alphabet))
(assert (str.in_re sym601 Alphabet))
(assert (not (= L0 L1 )))
(assert (not (= L2 L3 )))
(assert (not (= L4 L1 )))
(assert (not (= L6 L3 )))
(assert (not (= L8 L9 )))
(assert (not (= L10 L1 )))
(assert (= L12 L3 ))
(assert (= L14 L3 ))
(assert (not (= L16 L3 )))
(assert (not (= L18 L1 )))
(assert (= L20 L1 ))
(assert (= L22 L1 ))
(assert (not (= L24 L3 )))
(assert (= L26 L27 ))
(assert (not (= L28 L1 )))
(assert (not (= L30 "sql" )))
(assert (= L31 L32 ))
(assert (not (= L33 L27 )))
(assert (not (= L35 L1 )))
(assert (= L37 L27 ))
(assert (not (= L39 L1 )))
(assert (not (= L41 L3 )))
(assert (not (= L43 L32 )))
(assert (not (= L45 L1 )))
(assert (= L47 L3 ))
(assert (not (= L49 L9 )))
(assert (= L51 L1 ))
(assert (= L53 L54 ))
(assert (not (= L55 L1 )))
(assert (not (= L57 L3 )))
(assert (= L30 "html" ))
(assert (not (= L60 L32 )))
(assert (not (= L62 L9 )))
(assert (not (= L64 L1 )))
(assert (not (= L66 L67 )))
(assert (not (= L68 L3 )))
(assert (not (= L70 L1 )))
(assert (= L72 L54 ))
(assert (= L74 L32 ))
(assert (not (= L76 L3 )))
(assert (not (= L78 L1 )))
(assert (= L80 L54 ))
(assert (= L82 L3 ))
(assert (not (= L84 L1 )))
(assert (not (= L86 L67 )))
(assert (= L88 L89 ))
(assert (not (= L90 L1 )))
(assert (not (= L92 L3 )))
(assert (= L94 L67 ))
(assert (= L96 L1 ))
(assert (= L98 L9 ))
(assert (not (= L100 L3 )))
(assert (not (= L102 L3 )))
(assert (not (= L104 L32 )))
(assert (not (= L106 L1 )))
(assert (not (= L108 L1 )))
(assert (not (= L110 L3 )))
(assert (not (= L112 L32 )))
(check-sat)
(get-model)
(exit)
